unsat
(define-fun inv ((s (_ BitVec 4)) (t (_ BitVec 4))) (_ BitVec 4) (bvnot s))
0.05user 0.00system 0:00.06elapsed 100%CPU (0avgtext+0avgdata 26380maxresident)k
0inputs+8outputs (0major+1265minor)pagefaults 0swaps
